42788
29,22,23,24,25,146,18,17,9,10,11,19,21,12,13,8,7,6,5,4,2,1,3,16,14,15,20,26,33,32,31,30,51,52,55,54,71,69,70,73,72,64,65,66,67,68,74,75,76,77,78,79,80,82,81,90,91,89,86,83,84,85,63,62,61,60,59,58,57,56,53,34,35,36,43,44,42,45,46,47,49,48,50,95,100,96,98,97,93,92,87,94,88,156,159,158,157,162,161,160,163,168,167,117,116,115,114,102,101,113,112,99,111,110,109,108,107,106,105,104,103,41,40,118,38,39,130,131,132,126,124,123,120,119,121,122,125,133,134,136,184,141,185,186,175,176,173,171,135,170,169,164,165,166,172,174,178,179,181,180,177,189,188,187,149,148,151,150,190,192,191,198,193,194,196,182,183,195,202,201,200,199,197,152,153,155,154,147,144,145,140,139,143,142,138,137,127,128,129,37,27,28,29
